c turning on binary mode checking
c parsing input formula with 202048 variables and 780985 clauses
c finished parsing, read 2124837 bytes from proof file
c detected empty clause; start verification via backward checking
c 3749 of 780985 clauses in core                            
c 1265 of 88565 lemmas in core using 27763 resolution steps
c 0 RAT lemmas in core; 78 redundant literals in core lemmas
s VERIFIED
c verification time: 1.054 seconds
